Optimize a model with 0 rows, 0 columns and 0 nonzeros
Presolve time: 0.00s
Presolve: All rows and columns removed
Iteration    Objective       Primal Inf.    Dual Inf.      Time
       0    0.0000000e+00   0.000000e+00   0.000000e+00      0s

Solved in 0 iterations and 0.00 seconds
Optimal objective  0.000000000e+00
Optimize a model with 0 rows, 0 columns and 0 nonzeros
Presolve time: 0.00s
Presolve: All rows and columns removed
Iteration    Objective       Primal Inf.    Dual Inf.      Time
       0    0.0000000e+00   0.000000e+00   0.000000e+00      0s

Solved in 0 iterations and 0.00 seconds
Optimal objective  0.000000000e+00
Optimize a model with 0 rows, 0 columns and 0 nonzeros
Presolve time: 0.00s
Presolve: All rows and columns removed
Iteration    Objective       Primal Inf.    Dual Inf.      Time
       0    0.0000000e+00   0.000000e+00   0.000000e+00      0s

Solved in 0 iterations and 0.00 seconds
Optimal objective  0.000000000e+00
Optimize a model with 0 rows, 0 columns and 0 nonzeros
Presolve time: 0.00s
Presolve: All rows and columns removed
Iteration    Objective       Primal Inf.    Dual Inf.      Time
       0    0.0000000e+00   0.000000e+00   0.000000e+00      0s

Solved in 0 iterations and 0.00 seconds
Optimal objective  0.000000000e+00
Optimize a model with 0 rows, 0 columns and 0 nonzeros
Presolve time: 0.00s
Presolve: All rows and columns removed
Iteration    Objective       Primal Inf.    Dual Inf.      Time
       0    0.0000000e+00   0.000000e+00   0.000000e+00      0s

Solved in 0 iterations and 0.00 seconds
Optimal objective  0.000000000e+00
Optimize a model with 0 rows, 0 columns and 0 nonzeros
Presolve time: 0.00s
Presolve: All rows and columns removed
Iteration    Objective       Primal Inf.    Dual Inf.      Time
       0    0.0000000e+00   0.000000e+00   0.000000e+00      0s

Solved in 0 iterations and 0.00 seconds
Optimal objective  0.000000000e+00
Optimize a model with 0 rows, 0 columns and 0 nonzeros
Presolve time: 0.00s
Presolve: All rows and columns removed
Iteration    Objective       Primal Inf.    Dual Inf.      Time
       0    0.0000000e+00   0.000000e+00   0.000000e+00      0s

Solved in 0 iterations and 0.00 seconds
Optimal objective  0.000000000e+00
Optimize a model with 0 rows, 0 columns and 0 nonzeros
Presolve time: 0.00s
Presolve: All rows and columns removed
Iteration    Objective       Primal Inf.    Dual Inf.      Time
       0    0.0000000e+00   0.000000e+00   0.000000e+00      0s

Solved in 0 iterations and 0.00 seconds
Optimal objective  0.000000000e+00
Optimize a model with 0 rows, 0 columns and 0 nonzeros
Presolve time: 0.00s
Presolve: All rows and columns removed
Iteration    Objective       Primal Inf.    Dual Inf.      Time
       0    0.0000000e+00   0.000000e+00   0.000000e+00      0s

Solved in 0 iterations and 0.00 seconds
Optimal objective  0.000000000e+00
Optimize a model with 0 rows, 0 columns and 0 nonzeros
Presolve time: 0.00s
Presolve: All rows and columns removed
Iteration    Objective       Primal Inf.    Dual Inf.      Time
       0    0.0000000e+00   0.000000e+00   0.000000e+00      0s

Solved in 0 iterations and 0.00 seconds
Optimal objective  0.000000000e+00
Optimize a model with 0 rows, 0 columns and 0 nonzeros
Presolve time: 0.00s
Presolve: All rows and columns removed
Iteration    Objective       Primal Inf.    Dual Inf.      Time
       0    0.0000000e+00   0.000000e+00   0.000000e+00      0s

Solved in 0 iterations and 0.00 seconds
Optimal objective  0.000000000e+00
Optimize a model with 0 rows, 0 columns and 0 nonzeros
Presolve time: 0.00s
Presolve: All rows and columns removed
Iteration    Objective       Primal Inf.    Dual Inf.      Time
       0    0.0000000e+00   0.000000e+00   0.000000e+00      0s

Solved in 0 iterations and 0.00 seconds
Optimal objective  0.000000000e+00
Optimize a model with 0 rows, 0 columns and 0 nonzeros
Presolve time: 0.00s
Presolve: All rows and columns removed
Iteration    Objective       Primal Inf.    Dual Inf.      Time
       0    0.0000000e+00   0.000000e+00   0.000000e+00      0s

Solved in 0 iterations and 0.00 seconds
Optimal objective  0.000000000e+00
Optimize a model with 0 rows, 0 columns and 0 nonzeros
Presolve time: 0.00s
Presolve: All rows and columns removed
Iteration    Objective       Primal Inf.    Dual Inf.      Time
       0    0.0000000e+00   0.000000e+00   0.000000e+00      0s

Solved in 0 iterations and 0.00 seconds
Optimal objective  0.000000000e+00
Optimize a model with 0 rows, 0 columns and 0 nonzeros
Presolve time: 0.00s
Presolve: All rows and columns removed
Iteration    Objective       Primal Inf.    Dual Inf.      Time
       0    0.0000000e+00   0.000000e+00   0.000000e+00      0s

Solved in 0 iterations and 0.00 seconds
Optimal objective  0.000000000e+00

Gurobi 5.6.0 (mac64) logging started Mon Nov 11 18:36:14 2013


Gurobi 5.6.0 (mac64) logging started Mon Nov 11 18:38:15 2013

Optimize a model with 0 rows, 0 columns and 0 nonzeros
Presolve time: 0.00s
Presolve: All rows and columns removed
Iteration    Objective       Primal Inf.    Dual Inf.      Time
       0    0.0000000e+00   0.000000e+00   0.000000e+00      0s

Solved in 0 iterations and 0.00 seconds
Optimal objective  0.000000000e+00

Gurobi 5.6.0 (mac64) logging started Mon Nov 11 18:43:33 2013

Optimize a model with 0 rows, 0 columns and 0 nonzeros
Presolve time: 0.00s
Presolve: All rows and columns removed
Iteration    Objective       Primal Inf.    Dual Inf.      Time
       0    0.0000000e+00   0.000000e+00   0.000000e+00      0s

Solved in 0 iterations and 0.00 seconds
Optimal objective  0.000000000e+00

Gurobi 5.6.0 (mac64) logging started Mon Nov 11 18:44:28 2013

Optimize a model with 0 rows, 0 columns and 0 nonzeros
Presolve time: 0.00s
Presolve: All rows and columns removed
Iteration    Objective       Primal Inf.    Dual Inf.      Time
       0    0.0000000e+00   0.000000e+00   0.000000e+00      0s

Solved in 0 iterations and 0.00 seconds
Optimal objective  0.000000000e+00

Gurobi 5.6.0 (mac64) logging started Mon Nov 11 18:51:07 2013

Optimize a model with 0 rows, 0 columns and 0 nonzeros
Presolve time: 0.00s
Presolve: All rows and columns removed
Iteration    Objective       Primal Inf.    Dual Inf.      Time
       0    0.0000000e+00   0.000000e+00   0.000000e+00      0s

Solved in 0 iterations and 0.00 seconds
Optimal objective  0.000000000e+00

Gurobi 5.6.0 (mac64) logging started Mon Nov 11 18:51:11 2013

Optimize a model with 0 rows, 0 columns and 0 nonzeros
Presolve time: 0.00s
Presolve: All rows and columns removed
Iteration    Objective       Primal Inf.    Dual Inf.      Time
       0    0.0000000e+00   0.000000e+00   0.000000e+00      0s

Solved in 0 iterations and 0.00 seconds
Optimal objective  0.000000000e+00

Gurobi 5.6.0 (mac64) logging started Mon Nov 11 18:53:35 2013


Gurobi 5.6.0 (mac64) logging started Mon Nov 11 18:54:17 2013


Gurobi 5.6.0 (mac64) logging started Mon Nov 11 18:56:53 2013

Optimize a model with 0 rows, 0 columns and 0 nonzeros
Presolve time: 0.00s
Presolve: All rows and columns removed
Iteration    Objective       Primal Inf.    Dual Inf.      Time
       0    0.0000000e+00   0.000000e+00   0.000000e+00      0s

Solved in 0 iterations and 0.00 seconds
Optimal objective  0.000000000e+00

Gurobi 5.6.0 (mac64) logging started Mon Nov 11 18:58:21 2013

Optimize a model with 0 rows, 0 columns and 0 nonzeros
Presolve time: 0.00s
Presolve: All rows and columns removed
Iteration    Objective       Primal Inf.    Dual Inf.      Time
       0    0.0000000e+00   0.000000e+00   0.000000e+00      0s

Solved in 0 iterations and 0.00 seconds
Optimal objective  0.000000000e+00
Optimize a model with 9 rows, 18 columns and 36 nonzeros
Found heuristic solution: objective 89
Presolve time: 0.00s
Presolved: 9 rows, 18 columns, 36 nonzeros
Variable types: 0 continuous, 18 integer (16 binary)

Root relaxation: objective 8.600000e+01, 8 iterations, 0.00 seconds

    Nodes    |    Current Node    |     Objective Bounds      |     Work
 Expl Unexpl |  Obj  Depth IntInf | Incumbent    BestBd   Gap | It/Node Time

*    0     0               0      86.0000000   86.00000  0.00%     -    0s

Explored 0 nodes (8 simplex iterations) in 0.01 seconds
Thread count was 4 (of 4 available processors)

Optimal solution found (tolerance 1.00e-04)
Best objective 8.600000000000e+01, best bound 8.600000000000e+01, gap 0.0%
Optimize a model with 19 rows, 88 columns and 176 nonzeros
Found heuristic solution: objective 25
Presolve time: 0.00s
Presolved: 19 rows, 88 columns, 176 nonzeros
Variable types: 0 continuous, 88 integer (72 binary)

Root relaxation: objective 1.100000e+01, 23 iterations, 0.00 seconds

    Nodes    |    Current Node    |     Objective Bounds      |     Work
 Expl Unexpl |  Obj  Depth IntInf | Incumbent    BestBd   Gap | It/Node Time

*    0     0               0      11.0000000   11.00000  0.00%     -    0s

Explored 0 nodes (23 simplex iterations) in 0.00 seconds
Thread count was 4 (of 4 available processors)

Optimal solution found (tolerance 1.00e-04)
Best objective 1.100000000000e+01, best bound 1.100000000000e+01, gap 0.0%
Optimize a model with 24 rows, 143 columns and 286 nonzeros
Found heuristic solution: objective 238
Presolve time: 0.00s
Presolved: 24 rows, 143 columns, 286 nonzeros
Variable types: 0 continuous, 143 integer (113 binary)

Root relaxation: objective 2.110000e+02, 29 iterations, 0.00 seconds

    Nodes    |    Current Node    |     Objective Bounds      |     Work
 Expl Unexpl |  Obj  Depth IntInf | Incumbent    BestBd   Gap | It/Node Time

*    0     0               0     211.0000000  211.00000  0.00%     -    0s

Explored 0 nodes (29 simplex iterations) in 0.00 seconds
Thread count was 4 (of 4 available processors)

Optimal solution found (tolerance 1.00e-04)
Best objective 2.110000000000e+02, best bound 2.110000000000e+02, gap 0.0%
Optimize a model with 31 rows, 240 columns and 480 nonzeros
Found heuristic solution: objective 250
Presolve time: 0.00s
Presolved: 31 rows, 240 columns, 480 nonzeros
Variable types: 0 continuous, 240 integer (198 binary)

Root relaxation: cutoff, 43 iterations, 0.00 seconds

    Nodes    |    Current Node    |     Objective Bounds      |     Work
 Expl Unexpl |  Obj  Depth IntInf | Incumbent    BestBd   Gap | It/Node Time

     0     0     cutoff    0       250.00000  249.00025  0.40%     -    0s

Explored 0 nodes (43 simplex iterations) in 0.01 seconds
Thread count was 4 (of 4 available processors)

Optimal solution found (tolerance 1.00e-04)
Best objective 2.500000000000e+02, best bound 2.500000000000e+02, gap 0.0%
Optimize a model with 43 rows, 456 columns and 912 nonzeros
Found heuristic solution: objective 31
Presolve time: 0.00s
Presolved: 43 rows, 456 columns, 912 nonzeros
Variable types: 0 continuous, 456 integer (232 binary)

Root relaxation: objective 3.000000e+01, 61 iterations, 0.00 seconds

    Nodes    |    Current Node    |     Objective Bounds      |     Work
 Expl Unexpl |  Obj  Depth IntInf | Incumbent    BestBd   Gap | It/Node Time

*    0     0               0      30.0000000   30.00000  0.00%     -    0s

Explored 0 nodes (61 simplex iterations) in 0.01 seconds
Thread count was 4 (of 4 available processors)

Optimal solution found (tolerance 1.00e-04)
Best objective 3.000000000000e+01, best bound 3.000000000000e+01, gap 0.0%
Optimize a model with 52 rows, 676 columns and 1352 nonzeros
Found heuristic solution: objective 504
Presolve time: 0.01s
Presolved: 52 rows, 676 columns, 1352 nonzeros
Variable types: 0 continuous, 676 integer (277 binary)

Root relaxation: objective 3.250000e+02, 69 iterations, 0.00 seconds

    Nodes    |    Current Node    |     Objective Bounds      |     Work
 Expl Unexpl |  Obj  Depth IntInf | Incumbent    BestBd   Gap | It/Node Time

*    0     0               0     325.0000000  325.00000  0.00%     -    0s

Explored 0 nodes (69 simplex iterations) in 0.01 seconds
Thread count was 4 (of 4 available processors)

Optimal solution found (tolerance 1.00e-04)
Best objective 3.250000000000e+02, best bound 3.250000000000e+02, gap 0.0%
Optimize a model with 68 rows, 1156 columns and 2312 nonzeros
Found heuristic solution: objective 465
Presolve time: 0.01s
Presolved: 68 rows, 1156 columns, 2312 nonzeros
Variable types: 0 continuous, 1156 integer (481 binary)

Root relaxation: objective 3.140000e+02, 85 iterations, 0.00 seconds

    Nodes    |    Current Node    |     Objective Bounds      |     Work
 Expl Unexpl |  Obj  Depth IntInf | Incumbent    BestBd   Gap | It/Node Time

*    0     0               0     314.0000000  314.00000  0.00%     -    0s

Explored 0 nodes (85 simplex iterations) in 0.02 seconds
Thread count was 4 (of 4 available processors)

Optimal solution found (tolerance 1.00e-04)
Best objective 3.140000000000e+02, best bound 3.140000000000e+02, gap 0.0%
Optimize a model with 71 rows, 1258 columns and 2516 nonzeros
Found heuristic solution: objective 946
Presolve time: 0.02s
Presolved: 71 rows, 1258 columns, 2516 nonzeros
Variable types: 0 continuous, 1258 integer (421 binary)

Root relaxation: objective 6.720000e+02, 116 iterations, 0.00 seconds

    Nodes    |    Current Node    |     Objective Bounds      |     Work
 Expl Unexpl |  Obj  Depth IntInf | Incumbent    BestBd   Gap | It/Node Time

*    0     0               0     672.0000000  672.00000  0.00%     -    0s

Explored 0 nodes (116 simplex iterations) in 0.02 seconds
Thread count was 4 (of 4 available processors)

Optimal solution found (tolerance 1.00e-04)
Best objective 6.720000000000e+02, best bound 6.720000000000e+02, gap 0.0%
Optimize a model with 76 rows, 1435 columns and 2870 nonzeros
Found heuristic solution: objective 8
Presolve time: 0.04s
Presolved: 76 rows, 1435 columns, 2870 nonzeros
Variable types: 0 continuous, 1435 integer (787 binary)

Root relaxation: cutoff, 85 iterations, 0.00 seconds

    Nodes    |    Current Node    |     Objective Bounds      |     Work
 Expl Unexpl |  Obj  Depth IntInf | Incumbent    BestBd   Gap | It/Node Time

     0     0     cutoff    0         8.00000    7.00001  12.5%     -    0s

Explored 0 nodes (85 simplex iterations) in 0.05 seconds
Thread count was 4 (of 4 available processors)

Optimal solution found (tolerance 1.00e-04)
Best objective 8.000000000000e+00, best bound 8.000000000000e+00, gap 0.0%
Optimize a model with 99 rows, 2444 columns and 4888 nonzeros
Found heuristic solution: objective 30
Presolve time: 0.04s
Presolved: 99 rows, 2444 columns, 4888 nonzeros
Variable types: 0 continuous, 2444 integer (680 binary)

Root relaxation: cutoff, 119 iterations, 0.00 seconds

    Nodes    |    Current Node    |     Objective Bounds      |     Work
 Expl Unexpl |  Obj  Depth IntInf | Incumbent    BestBd   Gap | It/Node Time

     0     0     cutoff    0        30.00000   29.00003  3.33%     -    0s

Explored 0 nodes (119 simplex iterations) in 0.04 seconds
Thread count was 4 (of 4 available processors)

Optimal solution found (tolerance 1.00e-04)
Best objective 3.000000000000e+01, best bound 3.000000000000e+01, gap 0.0%
Optimize a model with 104 rows, 2695 columns and 5390 nonzeros
Found heuristic solution: objective 3
Presolve time: 0.05s
Presolved: 104 rows, 2695 columns, 5390 nonzeros
Variable types: 0 continuous, 2695 integer (809 binary)

Root relaxation: cutoff, 122 iterations, 0.00 seconds

    Nodes    |    Current Node    |     Objective Bounds      |     Work
 Expl Unexpl |  Obj  Depth IntInf | Incumbent    BestBd   Gap | It/Node Time

     0     0     cutoff    0         3.00000    2.00000  33.3%     -    0s

Explored 0 nodes (122 simplex iterations) in 0.05 seconds
Thread count was 4 (of 4 available processors)

Optimal solution found (tolerance 1.00e-04)
Best objective 3.000000000000e+00, best bound 3.000000000000e+00, gap 0.0%
Optimize a model with 119 rows, 3534 columns and 7068 nonzeros
Found heuristic solution: objective 387
Presolve time: 0.04s
Presolved: 119 rows, 3534 columns, 7068 nonzeros
Variable types: 0 continuous, 3534 integer (1137 binary)

Root relaxation: objective 2.760000e+02, 199 iterations, 0.00 seconds

    Nodes    |    Current Node    |     Objective Bounds      |     Work
 Expl Unexpl |  Obj  Depth IntInf | Incumbent    BestBd   Gap | It/Node Time

*    0     0               0     276.0000000  276.00000  0.00%     -    0s

Explored 0 nodes (199 simplex iterations) in 0.05 seconds
Thread count was 4 (of 4 available processors)

Optimal solution found (tolerance 1.00e-04)
Best objective 2.760000000000e+02, best bound 2.760000000000e+02, gap 0.0%
Optimize a model with 121 rows, 3654 columns and 7308 nonzeros
Found heuristic solution: objective 716
Presolve time: 0.04s
Presolved: 121 rows, 3654 columns, 7308 nonzeros
Variable types: 0 continuous, 3654 integer (1302 binary)

Root relaxation: objective 3.840000e+02, 237 iterations, 0.00 seconds

    Nodes    |    Current Node    |     Objective Bounds      |     Work
 Expl Unexpl |  Obj  Depth IntInf | Incumbent    BestBd   Gap | It/Node Time

*    0     0               0     384.0000000  384.00000  0.00%     -    0s

Explored 0 nodes (237 simplex iterations) in 0.05 seconds
Thread count was 4 (of 4 available processors)

Optimal solution found (tolerance 1.00e-04)
Best objective 3.840000000000e+02, best bound 3.840000000000e+02, gap 0.0%
Optimize a model with 136 rows, 4599 columns and 9198 nonzeros
Found heuristic solution: objective 2
Presolve time: 0.05s
Presolved: 136 rows, 4599 columns, 9198 nonzeros
Variable types: 0 continuous, 4599 integer (914 binary)

Root relaxation: cutoff, 177 iterations, 0.00 seconds

    Nodes    |    Current Node    |     Objective Bounds      |     Work
 Expl Unexpl |  Obj  Depth IntInf | Incumbent    BestBd   Gap | It/Node Time

     0     0     cutoff    0         2.00000    1.00000  50.0%     -    0s

Explored 0 nodes (177 simplex iterations) in 0.05 seconds
Thread count was 4 (of 4 available processors)

Optimal solution found (tolerance 1.00e-04)
Best objective 2.000000000000e+00, best bound 2.000000000000e+00, gap 0.0%

Gurobi 5.6.0 (mac64) logging started Mon Nov 11 18:59:31 2013

